Route #1: 30 85 11 79
Route #2: 40 67 88 44
Route #3: 27 97 19
Route #4: 80 94 56 21
Route #5: 75 93
Route #6: 3 77 63
Route #7: 57 72 36 29 43 45 2 7
Route #8: 34 64 96 48 26 47 38
Route #9: 4 13 74
Route #10: 17 8
Route #11: 83 51 81
Route #12: 100 61 23
Route #13: 20 41 22 15
Route #14: 31 46 35
Route #15: 50 91 52
Route #16: 1 70 54
Route #17: 18 10 39
Route #18: 76 55 16 69
Route #19: 92 9 86
Route #20: 58 12 5
Route #21: 32 33 53 73 95 24
Route #22: 68 90 84 66
Route #23: 25 65 78 42 28
Route #24: 14 49 6 37 87
Route #25: 71 62 99 98 89
Route #26: 82 60 59
Cost 27591.0000
Time 16.0003